Geographic Exponential Decay
20 315 20 303 186 50 29 180 125 219 249 208 294 117 79 171 84 35 301 179 197
p edge 320 1246
e 0 310 3.0
e 0 26 1.0
e 1 243 1.0
e 1 318 23.0
e 1 60 2.0
e 2 103 2.0
e 2 284 5.0
e 3 313 6.0
e 3 97 4.0
e 4 93 10.0
e 4 35 50.0
e 5 234 1.0
e 5 251 5.0
e 5 201 1.0
e 6 248 1.0
e 6 221 6.0
e 6 261 10.0
e 6 302 11.0
e 6 139 4.0
e 7 19 4.0
e 7 112 5.0
e 7 292 4.0
e 8 6 4.0
e 8 199 4.0
e 8 46 2.0
e 9 234 2.0
e 9 43 2.0
e 9 240 6.0
e 10 107 20.0
e 10 56 3.0
e 10 191 13.0
e 10 188 3.0
e 10 135 18.0
e 10 315 93.0
e 10 83 7.0
e 10 142 2.0
e 10 297 10.0
e 10 186 96.0
e 11 48 5.0
e 11 174 1.0
e 12 84 26.0
e 12 156 1.0
e 13 151 2.0
e 13 145 2.0
e 13 118 3.0
e 14 171 22.0
e 14 93 4.0
e 14 49 2.0
e 15 311 1.0
e 15 55 10.0
e 15 29 91.0
e 16 162 3.0
e 16 94 5.0
e 16 60 1.0
e 17 4 1.0
e 17 136 2.0
e 18 102 16.0
e 18 259 42.0
e 18 224 12.0
e 18 29 89.0
e 18 287 33.0
e 18 0 11.0
e 18 299 5.0
e 18 239 11.0
e 18 260 36.0
e 18 134 37.0
e 18 39 41.0
e 18 90 46.0
e 18 129 45.0
e 18 86 35.0
e 18 94 42.0
e 18 264 40.0
e 18 83 28.0
e 18 251 1.0
e 18 175 11.0
e 19 45 2.0
e 20 294 17.0
e 20 68 4.0
e 20 36 11.0
e 20 271 73.0
e 20 229 11.0
e 20 264 22.0
e 20 135 86.0
e 20 56 9.0
e 20 42 40.0
e 20 259 37.0
e 20 193 48.0
e 20 143 19.0
e 20 136 92.0
e 20 225 67.0
e 20 262 13.0
e 20 123 98.0
e 20 233 42.0
e 20 260 51.0
e 20 178 46.0
e 20 244 55.0
e 20 147 81.0
e 20 91 95.0
e 20 88 52.0
e 20 171 63.0
e 20 104 38.0
e 20 154 57.0
e 20 151 56.0
e 20 170 25.0
e 20 261 20.0
e 20 279 5.0
e 20 218 77.0
e 20 288 59.0
e 20 224 88.0
e 20 61 43.0
e 20 50 91.0
e 20 19 5.0
e 20 84 38.0
e 21 51 4.0
e 21 237 2.0
e 21 110 5.0
e 22 312 1.0
e 22 17 1.0
e 23 113 5.0
e 23 116 11.0
e 23 128 1.0
e 24 191 1.0
e 24 144 2.0
e 24 290 11.0
e 24 296 2.0
e 24 150 1.0
e 25 18 41.0
e 25 179 31.0
e 26 226 2.0
e 27 191 4.0
e 27 54 7.0
e 27 280 3.0
e 27 85 2.0
e 27 92 4.0
e 28 286 1.0
e 28 7 7.0
e 28 251 18.0
e 28 50 92.0
e 28 142 17.0
e 28 307 11.0
e 28 115 20.0
e 28 57 21.0
e 28 62 5.0
e 28 172 20.0
e 29 245 90.0
e 29 259 58.0
e 29 74 44.0
e 29 310 94.0
e 29 76 44.0
e 29 240 64.0
e 29 96 50.0
e 29 201 12.0
e 29 9 91.0
e 29 106 95.0
e 29 182 70.0
e 29 79 100.0
e 29 311 85.0
e 29 19 66.0
e 29 207 16.0
e 29 10 48.0
e 29 85 30.0
e 29 179 63.0
e 29 93 80.0
e 29 127 58.0
e 29 163 71.0
e 29 219 12.0
e 29 264 77.0
e 29 314 29.0
e 29 222 21.0
e 29 54 79.0
e 29 202 98.0
e 29 30 19.0
e 29 144 8.0
e 29 50 87.0
e 29 191 22.0
e 29 33 75.0
e 29 180 66.0
e 29 246 87.0
e 29 194 30.0
e 30 181 4.0
e 30 268 12.0
e 30 187 9.0
e 30 254 6.0
e 31 1 3.0
e 31 7 5.0
e 32 126 23.0
e 32 285 6.0
e 32 259 15.0
e 32 227 16.0
e 32 133 20.0
e 32 202 25.0
e 32 260 19.0
e 32 307 2.0
e 32 210 3.0
e 32 111 20.0
e 33 178 5.0
e 33 148 3.0
e 34 250 8.0
e 34 203 1.0
e 34 32 5.0
e 34 211 7.0
e 34 69 12.0
e 35 31 9.0
e 35 276 7.0
e 35 207 81.0
e 35 215 74.0
e 35 194 46.0
e 35 273 2.0
e 35 150 64.0
e 35 157 70.0
e 35 99 45.0
e 35 259 1.0
e 35 85 90.0
e 35 56 66.0
e 35 67 96.0
e 35 201 49.0
e 35 258 37.0
e 35 62 18.0
e 35 284 18.0
e 35 119 76.0
e 35 285 37.0
e 35 277 42.0
e 35 163 49.0
e 35 172 40.0
e 35 297 52.0
e 35 152 86.0
e 35 303 7.0
e 35 138 91.0
e 35 34 97.0
e 35 267 14.0
e 35 222 47.0
e 35 160 19.0
e 35 274 67.0
e 35 140 61.0
e 35 36 48.0
e 35 123 61.0
e 35 248 35.0
e 35 278 19.0
e 37 186 60.0
e 37 255 5.0
e 37 215 4.0
e 38 25 1.0
e 38 130 6.0
e 38 136 1.0
e 39 79 100.0
e 40 189 3.0
e 40 162 2.0
e 41 157 2.0
e 41 49 8.0
e 42 177 1.0
e 42 1 1.0
e 43 139 3.0
e 44 271 1.0
e 44 160 1.0
e 45 164 7.0
e 46 257 5.0
e 46 247 6.0
e 47 163 7.0
e 47 290 3.0
e 47 263 5.0
e 48 220 1.0
e 48 37 1.0
e 49 9 1.0
e 49 276 8.0
e 49 37 1.0
e 50 147 77.0
e 50 189 65.0
e 50 96 44.0
e 50 78 81.0
e 50 230 2.0
e 50 23 99.0
e 50 127 53.0
e 50 210 14.0
e 50 223 85.0
e 50 255 4.0
e 50 244 79.0
e 50 70 14.0
e 50 212 77.0
e 50 24 7.0
e 50 135 29.0
e 50 278 58.0
e 50 132 40.0
e 50 298 74.0
e 50 222 98.0
e 50 38 60.0
e 50 1 88.0
e 50 237 65.0
e 50 201 3.0
e 50 303 82.0
e 50 250 69.0
e 50 124 76.0
e 50 312 32.0
e 50 39 70.0
e 50 316 16.0
e 50 151 72.0
e 50 94 12.0
e 50 154 1.0
e 50 136 54.0
e 50 168 37.0
e 51 94 1.0
e 51 93 12.0
e 52 125 42.0
e 52 200 1.0
e 52 78 7.0
e 52 47 11.0
e 52 306 8.0
e 53 128 1.0
e 53 207 3.0
e 53 156 1.0
e 54 213 4.0
e 55 116 4.0
e 55 270 8.0
e 55 12 9.0
e 55 75 1.0
e 57 27 7.0
e 57 93 11.0
e 58 247 4.0
e 58 145 4.0
e 58 1 6.0
e 59 72 12.0
e 59 145 1.0
e 59 229 11.0
e 59 210 2.0
e 59 262 1.0
e 61 98 2.0
e 63 56 1.0
e 63 76 5.0
e 63 270 1.0
e 64 284 3.0
e 64 105 5.0
e 64 177 5.0
e 65 134 10.0
e 65 177 1.0
e 65 133 6.0
e 65 219 4.0
e 65 196 8.0
e 66 201 2.0
e 66 87 1.0
e 67 95 8.0
e 68 303 75.0
e 68 142 5.0
e 69 59 2.0
e 69 148 3.0
e 70 122 1.0
e 71 172 1.0
e 71 164 5.0
e 72 2 1.0
e 73 44 1.0
e 73 230 2.0
e 74 75 1.0
e 74 205 3.0
e 75 7 5.0
e 77 93 7.0
e 77 251 7.0
e 78 229 9.0
e 78 160 8.0
e 78 36 10.0
e 79 54 76.0
e 79 112 94.0
e 79 279 11.0
e 79 37 95.0
e 79 238 83.0
e 79 40 68.0
e 79 15 48.0
e 79 176 41.0
e 79 315 44.0
e 79 283 51.0
e 79 46 76.0
e 79 98 11.0
e 79 152 84.0
e 79 301 32.0
e 79 20 34.0
e 79 265 56.0
e 79 4 70.0
e 79 278 73.0
e 79 272 92.0
e 79 295 15.0
e 79 207 91.0
e 79 133 15.0
e 79 38 25.0
e 79 32 75.0
e 79 195 32.0
e 79 115 18.0
e 79 83 64.0
e 79 5 27.0
e 79 276 45.0
e 79 66 61.0
e 79 242 33.0
e 79 103 10.0
e 79 178 93.0
e 79 36 62.0
e 79 204 67.0
e 80 276 5.0
e 80 247 4.0
e 80 248 21.0
e 81 76 13.0
e 81 249 57.0
e 81 142 13.0
e 81 263 8.0
e 81 132 23.0
e 81 299 17.0
e 81 242 13.0
e 81 71 6.0
e 81 149 21.0
e 81 38 13.0
e 82 69 1.0
e 82 258 5.0
e 83 152 7.0
e 83 166 11.0
e 84 100 36.0
e 84 72 36.0
e 84 297 58.0
e 84 298 39.0
e 84 255 17.0
e 84 34 16.0
e 84 62 71.0
e 84 5 47.0
e 84 306 20.0
e 84 249 1.0
e 84 199 33.0
e 84 184 88.0
e 84 46 50.0
e 84 259 69.0
e 84 234 44.0
e 84 36 22.0
e 84 37 6.0
e 84 229 85.0
e 84 26 91.0
e 84 122 96.0
e 84 63 4.0
e 84 161 30.0
e 84 101 7.0
e 84 137 94.0
e 84 68 95.0
e 84 207 99.0
e 84 159 20.0
e 84 53 15.0
e 84 75 97.0
e 84 21 16.0
e 84 163 61.0
e 84 250 87.0
e 84 264 18.0
e 84 22 80.0
e 84 273 75.0
e 86 67 1.0
e 87 100 1.0
e 88 167 4.0
e 88 193 5.0
e 89 69 3.0
e 89 287 5.0
e 89 64 2.0
e 90 83 4.0
e 91 184 11.0
e 91 202 5.0
e 92 246 13.0
e 92 162 17.0
e 92 299 5.0
e 92 218 8.0
e 92 45 23.0
e 92 36 16.0
e 92 143 2.0
e 92 46 9.0
e 92 89 15.0
e 95 209 5.0
e 95 112 10.0
e 95 108 5.0
e 95 125 44.0
e 96 77 1.0
e 97 19 9.0
e 97 156 7.0
e 97 135 10.0
e 97 217 6.0
e 98 13 7.0
e 98 216 2.0
e 98 276 12.0
e 99 168 5.0
e 99 287 1.0
e 101 261 1.0
e 101 60 1.0
e 102 28 20.0
e 104 165 24.0
e 104 283 1.0
e 104 50 36.0
e 104 258 7.0
e 105 101 2.0
e 105 257 1.0
e 106 101 2.0
e 107 288 5.0
e 107 199 4.0
e 107 113 1.0
e 107 254 10.0
e 108 237 20.0
e 108 271 8.0
e 108 176 9.0
e 108 158 22.0
e 108 274 10.0
e 108 270 14.0
e 108 53 23.0
e 108 33 4.0
e 108 79 28.0
e 109 73 3.0
e 109 216 1.0
e 109 85 2.0
e 109 246 17.0
e 109 250 24.0
e 109 15 3.0
e 109 97 10.0
e 109 169 21.0
e 109 26 20.0
e 109 86 11.0
e 110 135 1.0
e 111 150 11.0
e 111 94 4.0
e 114 300 2.0
e 114 148 5.0
e 114 7 6.0
e 116 282 10.0
e 116 177 4.0
e 116 139 12.0
e 117 305 6.0
e 117 165 62.0
e 117 184 82.0
e 117 138 84.0
e 117 124 35.0
e 117 249 22.0
e 117 150 19.0
e 117 301 29.0
e 117 194 81.0
e 117 254 16.0
e 117 218 99.0
e 117 76 61.0
e 117 139 79.0
e 117 15 76.0
e 117 196 95.0
e 117 26 69.0
e 117 315 16.0
e 117 74 41.0
e 117 166 28.0
e 117 178 52.0
e 117 250 96.0
e 117 307 56.0
e 117 70 50.0
e 117 60 27.0
e 117 202 67.0
e 117 219 64.0
e 117 39 96.0
e 117 125 6.0
e 117 297 58.0
e 117 317 41.0
e 117 38 53.0
e 117 99 46.0
e 117 140 99.0
e 117 180 13.0
e 117 244 94.0
e 117 21 42.0
e 117 198 91.0
e 118 136 5.0
e 118 58 4.0
e 119 310 2.0
e 119 174 4.0
e 120 118 1.0
e 120 283 1.0
e 121 163 11.0
e 121 142 1.0
e 122 235 2.0
e 123 11 2.0
e 125 261 1.0
e 125 47 57.0
e 125 282 27.0
e 125 32 97.0
e 125 101 9.0
e 125 5 71.0
e 125 231 24.0
e 125 139 75.0
e 125 182 72.0
e 125 129 71.0
e 125 178 78.0
e 125 40 46.0
e 125 207 100.0
e 125 96 79.0
e 125 123 33.0
e 125 263 10.0
e 125 73 67.0
e 125 34 45.0
e 125 75 87.0
e 125 295 89.0
e 125 242 81.0
e 125 11 61.0
e 125 118 32.0
e 125 296 57.0
e 125 151 75.0
e 125 196 84.0
e 125 167 87.0
e 125 238 82.0
e 125 68 17.0
e 125 51 66.0
e 125 29 66.0
e 125 209 99.0
e 125 53 75.0
e 125 102 43.0
e 126 115 2.0
e 130 24 9.0
e 130 32 7.0
e 130 222 11.0
e 130 284 9.0
e 131 313 9.0
e 131 6 8.0
e 131 193 4.0
e 137 90 3.0
e 137 286 11.0
e 137 55 10.0
e 137 240 7.0
e 141 202 11.0
e 141 110 6.0
e 141 27 3.0
e 141 255 5.0
e 141 33 1.0
e 144 220 12.0
e 144 1 1.0
e 144 141 7.0
e 146 41 7.0
e 146 106 22.0
e 146 56 15.0
e 146 250 17.0
e 146 279 23.0
e 146 175 8.0
e 146 297 12.0
e 146 228 9.0
e 146 150 16.0
e 146 273 24.0
e 147 105 9.0
e 147 298 6.0
e 147 53 7.0
e 147 276 6.0
e 147 247 21.0
e 147 32 1.0
e 147 62 22.0
e 147 189 12.0
e 149 164 23.0
e 153 244 10.0
e 153 68 5.0
e 153 308 2.0
e 153 79 20.0
e 153 13 12.0
e 155 55 9.0
e 155 259 4.0
e 158 268 5.0
e 159 35 12.0
e 159 284 1.0
e 161 202 5.0
e 161 270 5.0
e 164 153 9.0
e 164 127 23.0
e 164 230 2.0
e 164 44 2.0
e 164 225 24.0
e 164 270 24.0
e 164 31 6.0
e 165 55 11.0
e 165 111 5.0
e 165 308 10.0
e 165 84 50.0
e 165 237 9.0
e 165 227 18.0
e 165 27 2.0
e 165 129 13.0
e 168 260 4.0
e 168 240 9.0
e 168 210 1.0
e 169 297 10.0
e 169 257 6.0
e 169 226 11.0
e 169 296 11.0
e 170 263 3.0
e 171 134 65.0
e 171 211 12.0
e 171 117 83.0
e 171 43 89.0
e 171 193 3.0
e 171 72 60.0
e 171 131 77.0
e 171 99 12.0
e 171 315 24.0
e 171 64 33.0
e 171 268 38.0
e 171 161 5.0
e 171 165 26.0
e 171 266 3.0
e 171 65 65.0
e 171 196 86.0
e 171 232 27.0
e 171 226 89.0
e 171 66 12.0
e 171 318 14.0
e 171 78 27.0
e 171 3 49.0
e 171 62 80.0
e 171 146 26.0
e 171 1 76.0
e 171 243 100.0
e 171 262 90.0
e 171 15 67.0
e 171 187 59.0
e 171 139 26.0
e 171 164 21.0
e 171 312 22.0
e 171 244 6.0
e 171 82 90.0
e 171 52 40.0
e 173 152 1.0
e 173 241 2.0
e 173 20 47.0
e 175 116 3.0
e 176 279 8.0
e 178 201 5.0
e 178 233 1.0
e 178 150 1.0
e 178 43 7.0
e 178 199 14.0
e 179 242 36.0
e 179 264 67.0
e 179 64 2.0
e 179 88 54.0
e 179 317 43.0
e 179 197 18.0
e 179 27 46.0
e 179 74 13.0
e 179 124 60.0
e 179 273 42.0
e 179 161 94.0
e 179 70 66.0
e 179 153 79.0
e 179 267 46.0
e 179 140 32.0
e 179 237 45.0
e 179 71 59.0
e 179 107 59.0
e 179 41 17.0
e 179 87 60.0
e 179 113 22.0
e 179 137 80.0
e 179 295 74.0
e 179 282 52.0
e 179 177 100.0
e 179 8 47.0
e 179 248 22.0
e 179 310 7.0
e 179 288 13.0
e 179 311 16.0
e 179 143 33.0
e 179 156 46.0
e 179 313 32.0
e 179 193 41.0
e 179 114 58.0
e 180 4 75.0
e 180 295 35.0
e 180 315 77.0
e 180 305 91.0
e 180 298 64.0
e 180 66 5.0
e 180 294 82.0
e 180 80 2.0
e 180 238 74.0
e 180 125 11.0
e 180 24 86.0
e 180 102 28.0
e 180 175 6.0
e 180 22 52.0
e 180 244 80.0
e 180 181 56.0
e 180 171 26.0
e 180 303 29.0
e 180 71 69.0
e 180 14 60.0
e 180 267 91.0
e 180 278 84.0
e 180 30 38.0
e 180 239 78.0
e 180 25 43.0
e 180 115 35.0
e 180 317 86.0
e 180 67 95.0
e 180 31 90.0
e 180 92 41.0
e 180 55 7.0
e 180 201 23.0
e 180 72 11.0
e 180 167 70.0
e 180 64 6.0
e 181 120 8.0
e 181 313 10.0
e 181 36 1.0
e 182 101 2.0
e 183 97 1.0
e 183 71 2.0
e 184 105 8.0
e 184 287 1.0
e 185 26 2.0
e 185 72 2.0
e 186 294 33.0
e 186 146 56.0
e 186 51 60.0
e 186 210 27.0
e 186 120 6.0
e 186 132 18.0
e 186 70 67.0
e 186 200 31.0
e 186 143 78.0
e 186 247 70.0
e 186 152 1.0
e 186 140 62.0
e 186 174 47.0
e 186 91 90.0
e 186 39 11.0
e 186 153 65.0
e 186 178 67.0
e 186 42 46.0
e 186 233 4.0
e 186 288 43.0
e 186 129 64.0
e 186 76 7.0
e 186 259 24.0
e 186 136 24.0
e 186 299 63.0
e 186 52 15.0
e 186 173 99.0
e 186 58 52.0
e 186 184 80.0
e 186 205 23.0
e 186 25 53.0
e 186 50 79.0
e 186 214 65.0
e 186 185 99.0
e 186 44 64.0
e 188 127 38.0
e 188 109 20.0
e 188 280 6.0
e 188 82 39.0
e 188 119 10.0
e 188 115 37.0
e 188 28 32.0
e 188 81 50.0
e 188 182 34.0
e 188 162 19.0
e 188 275 32.0
e 188 311 26.0
e 188 252 48.0
e 188 36 23.0
e 188 243 16.0
e 188 254 3.0
e 188 93 5.0
e 188 55 24.0
e 190 3 1.0
e 190 186 99.0
e 190 134 4.0
e 190 139 4.0
e 190 182 10.0
e 192 299 21.0
e 192 294 18.0
e 194 7 11.0
e 194 242 11.0
e 195 266 2.0
e 197 50 11.0
e 197 73 2.0
e 197 174 38.0
e 197 259 11.0
e 197 54 35.0
e 197 306 34.0
e 197 239 29.0
e 197 143 61.0
e 197 253 37.0
e 197 134 35.0
e 197 200 65.0
e 197 317 52.0
e 197 299 32.0
e 197 105 24.0
e 197 109 98.0
e 197 186 46.0
e 197 74 75.0
e 197 83 11.0
e 197 291 35.0
e 197 229 98.0
e 197 249 65.0
e 197 123 74.0
e 197 264 26.0
e 197 27 87.0
e 197 318 33.0
e 197 245 78.0
e 197 216 13.0
e 197 32 81.0
e 197 167 82.0
e 197 148 34.0
e 197 247 77.0
e 197 309 77.0
e 197 312 76.0
e 197 113 72.0
e 197 29 80.0
e 197 156 43.0
e 198 5 4.0
e 198 302 3.0
e 203 180 36.0
e 204 63 6.0
e 206 30 6.0
e 206 205 10.0
e 206 88 1.0
e 206 159 1.0
e 206 188 42.0
e 208 100 91.0
e 208 209 39.0
e 208 295 63.0
e 208 88 47.0
e 208 200 59.0
e 208 116 79.0
e 208 108 89.0
e 208 239 97.0
e 208 184 59.0
e 208 210 45.0
e 208 263 86.0
e 208 45 67.0
e 208 275 35.0
e 208 118 52.0
e 208 297 33.0
e 208 316 51.0
e 208 307 26.0
e 208 69 87.0
e 208 171 96.0
e 208 89 98.0
e 208 95 96.0
e 208 43 67.0
e 208 64 73.0
e 208 28 29.0
e 208 138 21.0
e 208 252 96.0
e 208 248 86.0
e 208 122 83.0
e 208 155 16.0
e 208 30 14.0
e 208 281 13.0
e 208 160 46.0
e 208 259 61.0
e 208 173 90.0
e 208 224 56.0
e 208 260 6.0
e 208 16 15.0
e 211 118 10.0
e 211 4 1.0
e 211 245 4.0
e 212 272 3.0
e 213 120 1.0
e 214 265 4.0
e 215 225 2.0
e 217 55 6.0
e 217 268 1.0
e 217 202 8.0
e 217 156 4.0
e 218 238 4.0
e 218 62 9.0
e 219 123 73.0
e 219 149 71.0
e 219 129 58.0
e 219 116 47.0
e 219 27 51.0
e 219 20 20.0
e 219 205 44.0
e 219 70 71.0
e 219 118 98.0
e 219 254 67.0
e 219 15 32.0
e 219 10 14.0
e 219 143 100.0
e 219 297 94.0
e 219 142 94.0
e 219 261 56.0
e 219 244 71.0
e 219 64 6.0
e 219 98 44.0
e 219 109 80.0
e 219 126 95.0
e 219 133 60.0
e 219 294 18.0
e 219 158 11.0
e 219 83 55.0
e 219 283 59.0
e 219 197 16.0
e 219 79 13.0
e 219 296 12.0
e 219 212 53.0
e 219 242 100.0
e 219 121 11.0
e 219 97 29.0
e 219 2 42.0
e 221 108 15.0
e 221 83 2.0
e 222 174 11.0
e 223 242 3.0
e 223 276 2.0
e 227 46 5.0
e 228 45 1.0
e 231 270 2.0
e 232 132 2.0
e 235 194 8.0
e 236 145 3.0
e 236 22 2.0
e 240 104 3.0
e 241 234 3.0
e 242 190 5.0
e 242 287 10.0
e 242 93 9.0
e 248 7 13.0
e 248 181 8.0
e 248 249 12.0
e 248 209 3.0
e 248 51 2.0
e 249 104 70.0
e 249 70 70.0
e 249 198 56.0
e 249 61 60.0
e 249 270 38.0
e 249 141 11.0
e 249 265 48.0
e 249 306 73.0
e 249 151 69.0
e 249 192 71.0
e 249 169 2.0
e 249 146 55.0
e 249 311 49.0
e 249 221 33.0
e 249 189 73.0
e 249 115 26.0
e 249 222 88.0
e 249 51 97.0
e 249 99 8.0
e 249 316 32.0
e 249 106 100.0
e 249 168 45.0
e 249 227 7.0
e 249 20 57.0
e 249 231 59.0
e 249 223 66.0
e 249 261 16.0
e 249 275 67.0
e 249 33 13.0
e 249 282 16.0
e 249 25 80.0
e 249 318 3.0
e 251 136 5.0
e 253 47 6.0
e 253 207 2.0
e 256 73 2.0
e 256 137 6.0
e 269 81 11.0
e 269 28 14.0
e 272 194 7.0
e 273 143 33.0
e 273 272 15.0
e 273 67 2.0
e 273 93 37.0
e 273 17 41.0
e 273 261 26.0
e 273 99 29.0
e 273 83 32.0
e 273 166 30.0
e 273 231 48.0
e 273 169 8.0
e 273 30 46.0
e 273 239 48.0
e 273 219 23.0
e 273 293 47.0
e 274 17 12.0
e 274 56 11.0
e 274 78 6.0
e 275 253 2.0
e 275 160 11.0
e 277 131 5.0
e 279 55 6.0
e 280 79 99.0
e 281 288 3.0
e 289 209 8.0
e 289 39 4.0
e 289 165 13.0
e 289 89 6.0
e 289 22 10.0
e 290 11 2.0
e 291 215 4.0
e 291 167 2.0
e 292 12 1.0
e 293 249 19.0
e 294 135 51.0
e 294 314 32.0
e 294 278 86.0
e 294 182 66.0
e 294 250 93.0
e 294 257 84.0
e 294 35 35.0
e 294 66 25.0
e 294 9 28.0
e 294 134 43.0
e 294 70 84.0
e 294 279 85.0
e 294 120 40.0
e 294 317 89.0
e 294 151 8.0
e 294 113 56.0
e 294 117 58.0
e 294 37 2.0
e 294 127 100.0
e 294 183 57.0
e 294 184 91.0
e 294 315 48.0
e 294 247 46.0
e 294 302 19.0
e 294 67 73.0
e 294 128 42.0
e 294 0 4.0
e 294 101 77.0
e 294 31 70.0
e 294 230 60.0
e 294 126 98.0
e 294 258 8.0
e 299 73 2.0
e 299 103 9.0
e 299 310 5.0
e 299 118 6.0
e 300 203 1.0
e 301 75 3.0
e 301 263 85.0
e 301 161 35.0
e 301 41 29.0
e 301 162 61.0
e 301 33 26.0
e 301 140 74.0
e 301 300 92.0
e 301 231 52.0
e 301 20 49.0
e 301 144 15.0
e 301 150 1.0
e 301 281 77.0
e 301 124 31.0
e 301 199 15.0
e 301 206 72.0
e 301 52 73.0
e 301 294 20.0
e 301 187 17.0
e 301 241 52.0
e 301 125 99.0
e 301 154 88.0
e 301 152 79.0
e 301 147 46.0
e 301 246 84.0
e 301 127 1.0
e 301 99 64.0
e 301 280 87.0
e 301 107 91.0
e 301 72 39.0
e 301 160 78.0
e 301 151 81.0
e 301 311 90.0
e 301 10 24.0
e 301 93 86.0
e 303 222 6.0
e 303 278 8.0
e 303 295 74.0
e 303 315 62.0
e 303 213 95.0
e 303 121 16.0
e 303 190 84.0
e 303 16 46.0
e 303 200 38.0
e 303 3 39.0
e 303 115 77.0
e 303 257 74.0
e 303 66 50.0
e 303 272 87.0
e 303 263 73.0
e 303 201 32.0
e 303 6 4.0
e 303 157 6.0
e 303 151 94.0
e 303 218 38.0
e 303 131 61.0
e 303 149 50.0
e 303 47 95.0
e 303 193 37.0
e 303 288 73.0
e 303 44 55.0
e 303 88 96.0
e 303 231 36.0
e 303 296 69.0
e 303 297 6.0
e 303 109 35.0
e 303 258 30.0
e 303 36 87.0
e 304 68 10.0
e 304 214 7.0
e 304 167 4.0
e 304 272 7.0
e 304 132 3.0
e 306 316 10.0
e 307 317 9.0
e 309 174 2.0
e 309 163 6.0
e 313 40 9.0
e 315 312 20.0
e 315 205 47.0
e 315 109 34.0
e 315 215 84.0
e 315 277 28.0
e 315 161 48.0
e 315 283 52.0
e 315 196 28.0
e 315 14 13.0
e 315 288 47.0
e 315 293 72.0
e 315 48 75.0
e 315 157 78.0
e 315 44 65.0
e 315 29 88.0
e 315 270 24.0
e 315 96 14.0
e 315 76 16.0
e 315 122 35.0
e 315 254 18.0
e 315 12 89.0
e 315 190 94.0
e 315 231 59.0
e 315 140 77.0
e 315 4 24.0
e 315 65 84.0
e 315 191 13.0
e 315 211 67.0
e 315 46 90.0
e 315 80 9.0
e 316 280 23.0
e 316 45 23.0
e 316 114 6.0
e 316 287 5.0
e 316 307 14.0
e 316 74 6.0
e 318 53 10.0
e 318 123 16.0
e 318 96 7.0
e 318 125 58.0
e 318 138 22.0
e 318 122 10.0
e 319 77 2.0
e 319 205 1.0
